
  22   10
  10   10   10   10   10   10   10   10   10   10

   0   0   0   0   0   0   0   0   0   0   0   4 2 3 4 5 
   4  10  10  10  10  10  10  10  10  10  10   3 9 8 6 
   2  10  10  10  10  10  10  10  10  10  10   3 8 7 6 
  10  10  10  10  10  10  10  10  10  10  10   2 8 6 
   4  10  10  10  10  10  10  10  10  10  10   3 12 11 9 
   5  10  10  10  10  10  10  10  10  10  10   3 12 11 10 
   5  10  10  10  10  10  10  10  10  10  10   2 11 10 
   2  10  10  10  10  10  10  10  10  10  10   2 14 10 
   7  10  10  10  10  10  10  10  10  10  10   1 10 
   9  10  10  10  10  10  10  10  10  10  10   3 16 15 13 
   1  10  10  10  10  10  10  10  10  10  10   3 16 14 13 
   6  10  10  10  10  10  10  10  10  10  10   2 17 14 
   1  10  10  10  10  10  10  10  10  10  10   3 21 19 18 
   6  10  10  10  10  10  10  10  10  10  10   3 21 20 19 
   8  10  10  10  10  10  10  10  10  10  10   2 20 17 
   4  10  10  10  10  10  10  10  10  10  10   2 19 18 
   1  10  10  10  10  10  10  10  10  10  10   1 18 
  10  10  10  10  10  10  10  10  10  10  10   1 22
   1  10  10  10  10  10  10  10  10  10  10   1 22
   9  10  10  10  10  10  10  10  10  10  10   1 22
   1  10  10  10  10  10  10  10  10  10  10   1 22
   0   0   0   0   0   0   0   0   0   0   0   0 
